NAME : obs.obs
TIME : 2020-10-29 16:38:55
COMMENT : hello world
DIMENSION : 26
OBSTACLE_SECTION
0 53.0544 11.0887
1 51.6396 13.3065
2 51.6396 17.1371
3 56.7326 21.1694
4 58.7132 25.0000
5 53.9032 25.8065
6 52.7714 22.5806
7 52.7714 20.3629
8 48.5273 20.7661
9 42.5855 12.9032
10 40.3220 10.6855
11 45.6979 18.5484
12 47.6785 16.3306
13 48.5273 11.0887
14 23.0626 43.9516
15 16.8378 49.5968
16 10.3302 48.7903
17 6.0861 48.5887
18 62.1085 43.3468
19 62.6744 47.1774
20 61.5426 50.8065
21 59.2791 54.8387
22 55.6008 58.2661
23 50.7908 61.0887
24 44.8491 64.7177
25 39.7561 66.3306
EOF
